3526.3
0 20 18 14 12 11 17 16 24 13 21 2 8 7 9 5 3 1 4 10 0
0 31 32 38 37 46 19 22 23 0
0 28 30 36 34 33 27 25 26 51 0
0 29 39 41 45 48 40 53 54 6 0
0 43 42 49 35 44 57 55 72 56 0
0 65 70 68 61 52 62 47 59 58 75 77 50 0
0 85 81 84 82 79 76 73 80 92 86 87 66 67 69 63 60 64 74 0
0 90 83 95 71 0
0 89 88 98 99 78 100 0
0 93 94 91 0
0 96 97 15 0
